language ESSENCE' 1.0

letting fixed be 
[
    [1,0,9,5,7,0,3,0,0],
    [0,7,0,3,9,0,0,1,0],
    [0,0,3,0,1,0,5,9,7],
    [0,8,0,7,4,3,0,0,0],
    [4,9,2,0,5,0,7,8,3],
    [7,3,0,2,8,9,0,4,0],
    [3,1,7,0,2,0,4,0,0],
    [2,6,0,0,3,0,0,7,0],
    [9,5,0,0,6,7,2,3,1]
]